(benchmark random_random68_smt
:extrafuns ((x0 BitVec[24]))
:extrafuns ((x1 BitVec[24]))
:extrafuns ((x2 BitVec[24]))
:extrafuns ((x3 BitVec[24]))
:extrafuns ((x4 BitVec[24]))
:extrafuns ((x5 BitVec[24]))
:extrafuns ((x6 BitVec[24]))
:extrafuns ((x7 BitVec[24]))
:extrafuns ((x8 BitVec[24]))
:extrafuns ((x9 BitVec[24]))
:extrafuns ((x10 BitVec[24]))
:extrafuns ((x11 BitVec[24]))
:extrafuns ((x12 BitVec[24]))
:extrafuns ((x13 BitVec[24]))
:extrafuns ((x14 BitVec[24]))
:extrafuns ((x15 BitVec[24]))
:extrafuns ((x16 BitVec[24]))
:extrafuns ((x17 BitVec[24]))
:extrafuns ((x18 BitVec[24]))
:extrafuns ((x19 BitVec[24]))


:formula (and (not (= (bvadd (bvmul bv9808045[24] x0) 
                        (bvadd (bvmul bv8386359[24] x3) 
                        (bvadd (bvmul bv16138280[24] x4) 
                        (bvadd (bvmul bv4690645[24] x5) 
                        (bvadd (bvmul bv15462793[24] x8) 
                        (bvadd (bvmul bv2020013[24] x12) 
                        (bvadd (bvmul bv14915711[24] x13) 
                        (bvadd (bvmul bv11077587[24] x14) (bvmul bv819180[24] x18)))))))))
	              bv5906302[24]))
         (and (not (= (bvadd (bvmul bv15714347[24] x1) 
                        (bvadd (bvmul bv3396881[24] x2) 
                        (bvadd (bvmul bv6985443[24] x5) 
                        (bvadd (bvmul bv4059495[24] x9) 
                        (bvadd (bvmul bv4786816[24] x11) 
                        (bvadd (bvmul bv11480228[24] x12) 
                        (bvadd (bvmul bv2319309[24] x15) 
                        (bvadd (bvmul bv14490278[24] x16) (bvmul bv3175391[24] x19)))))))))
	              bv10674563[24]))
         (and (not (= (bvadd (bvmul bv8603518[24] x0) 
                        (bvadd (bvmul bv14135981[24] x1) 
                        (bvadd (bvmul bv4983144[24] x3) 
                        (bvadd (bvmul bv11968587[24] x5) 
                        (bvadd (bvmul bv442987[24] x6) 
                        (bvadd (bvmul bv14332699[24] x10) 
                        (bvadd (bvmul bv1374576[24] x11) 
                        (bvadd (bvmul bv16096129[24] x12) 
                        (bvadd (bvmul bv3994434[24] x17) (bvmul bv8882833[24] x18))))))))))
	              bv3691345[24]))
         (and (not (= (bvadd (bvmul bv13851864[24] x1) 
                        (bvadd (bvmul bv9646376[24] x4) 
                        (bvadd (bvmul bv6898313[24] x5) 
                        (bvadd (bvmul bv467308[24] x11) 
                        (bvadd (bvmul bv3674781[24] x15) 
                        (bvadd (bvmul bv14600426[24] x16) 
                        (bvadd (bvmul bv14190713[24] x18) (bvmul bv8384673[24] x19))))))))
	              bv6296331[24]))
         (and (not (= (bvadd (bvmul bv12076018[24] x0) 
                        (bvadd (bvmul bv15473396[24] x1) 
                        (bvadd (bvmul bv1486815[24] x2) 
                        (bvadd (bvmul bv12141938[24] x5) 
                        (bvadd (bvmul bv15970940[24] x6) 
                        (bvadd (bvmul bv467903[24] x7) 
                        (bvadd (bvmul bv7469639[24] x10) 
                        (bvadd (bvmul bv16667554[24] x11) 
                        (bvadd (bvmul bv4730754[24] x12) 
                        (bvadd (bvmul bv16610822[24] x16) (bvmul bv1408352[24] x17)))))))))))
	              bv1108404[24]))
         (and (not (= (bvadd (bvmul bv12667753[24] x2) 
                        (bvadd (bvmul bv15707386[24] x5) 
                        (bvadd (bvmul bv8799859[24] x6) 
                        (bvadd (bvmul bv12521774[24] x7) 
                        (bvadd (bvmul bv5126228[24] x8) 
                        (bvadd (bvmul bv9626605[24] x11) (bvmul bv8257695[24] x14)))))))
	              bv1766960[24]))
         (and (not (= (bvadd (bvmul bv6365371[24] x0) 
                        (bvadd (bvmul bv2679951[24] x3) 
                        (bvadd (bvmul bv14026945[24] x4) 
                        (bvadd (bvmul bv12957116[24] x6) 
                        (bvadd (bvmul bv13395574[24] x9) 
                        (bvadd (bvmul bv16207242[24] x10) 
                        (bvadd (bvmul bv2044089[24] x11) 
                        (bvadd (bvmul bv7086802[24] x12) 
                        (bvadd (bvmul bv6751967[24] x16) (bvmul bv12958684[24] x18))))))))))
	              bv342711[24]))
         (and (not (= (bvadd (bvmul bv11268005[24] x0) 
                        (bvadd (bvmul bv3943540[24] x2) 
                        (bvadd (bvmul bv1193270[24] x4) 
                        (bvadd (bvmul bv4778188[24] x5) 
                        (bvadd (bvmul bv10866340[24] x6) 
                        (bvadd (bvmul bv8454186[24] x7) 
                        (bvadd (bvmul bv3132894[24] x12) 
                        (bvadd (bvmul bv15552103[24] x13) 
                        (bvadd (bvmul bv13769247[24] x15) 
                        (bvadd (bvmul bv4722490[24] x16) 
                        (bvadd (bvmul bv6445188[24] x17) (bvmul bv12687709[24] x18))))))))))))
	              bv4115914[24]))
         (and (not (= (bvadd (bvmul bv12045774[24] x0) 
                        (bvadd (bvmul bv15019139[24] x4) 
                        (bvadd (bvmul bv6625898[24] x5) 
                        (bvadd (bvmul bv1625770[24] x6) 
                        (bvadd (bvmul bv16592964[24] x7) 
                        (bvadd (bvmul bv6187084[24] x8) 
                        (bvadd (bvmul bv15129[24] x11) 
                        (bvadd (bvmul bv12831730[24] x12) 
                        (bvadd (bvmul bv12979481[24] x13) 
                        (bvadd (bvmul bv12763423[24] x16) 
                        (bvadd (bvmul bv4457759[24] x17) (bvmul bv1622876[24] x18))))))))))))
	              bv8306423[24]))
         (and (not (= (bvadd (bvmul bv8612928[24] x0) 
                        (bvadd (bvmul bv2157843[24] x1) 
                        (bvadd (bvmul bv15963117[24] x4) 
                        (bvadd (bvmul bv14520889[24] x7) 
                        (bvadd (bvmul bv3762297[24] x8) 
                        (bvadd (bvmul bv5816459[24] x9) 
                        (bvadd (bvmul bv1870974[24] x11) (bvmul bv8189209[24] x13))))))))
	              bv7502879[24]))
         (and (not (= (bvadd (bvmul bv8742489[24] x0) 
                        (bvadd (bvmul bv8864996[24] x5) 
                        (bvadd (bvmul bv8059346[24] x6) 
                        (bvadd (bvmul bv1658978[24] x7) 
                        (bvadd (bvmul bv14932674[24] x9) 
                        (bvadd (bvmul bv10911460[24] x10) 
                        (bvadd (bvmul bv8300716[24] x12) 
                        (bvadd (bvmul bv9910539[24] x16) (bvmul bv10627575[24] x19)))))))))
	              bv1866372[24]))
         (and (not (= (bvadd (bvmul bv6924203[24] x2) 
                        (bvadd (bvmul bv9490042[24] x4) 
                        (bvadd (bvmul bv7063642[24] x5) 
                        (bvadd (bvmul bv1230417[24] x10) 
                        (bvadd (bvmul bv7848766[24] x13) 
                        (bvadd (bvmul bv6675488[24] x16) 
                        (bvadd (bvmul bv16586028[24] x18) (bvmul bv12376856[24] x19))))))))
	              bv15599356[24]))
         (and (not (= (bvadd (bvmul bv5338348[24] x1) 
                        (bvadd (bvmul bv13524073[24] x4) 
                        (bvadd (bvmul bv13337164[24] x7) 
                        (bvadd (bvmul bv1102317[24] x8) 
                        (bvadd (bvmul bv14370718[24] x10) 
                        (bvadd (bvmul bv9707571[24] x14) 
                        (bvadd (bvmul bv2095601[24] x15) 
                        (bvadd (bvmul bv7653221[24] x17) (bvmul bv464653[24] x19)))))))))
	              bv13168208[24]))
         (and (not (= (bvadd (bvmul bv3903661[24] x0) 
                        (bvadd (bvmul bv3913552[24] x1) 
                        (bvadd (bvmul bv1931884[24] x2) 
                        (bvadd (bvmul bv8122765[24] x3) 
                        (bvadd (bvmul bv4119998[24] x8) 
                        (bvadd (bvmul bv1713501[24] x10) 
                        (bvadd (bvmul bv13252819[24] x11) 
                        (bvadd (bvmul bv10191882[24] x15) 
                        (bvadd (bvmul bv16611710[24] x16) (bvmul bv16364772[24] x18))))))))))
	              bv9987537[24]))
         (and (not (= (bvadd (bvmul bv5436204[24] x0) 
                        (bvadd (bvmul bv5849471[24] x7) 
                        (bvadd (bvmul bv1969977[24] x8) 
                        (bvadd (bvmul bv8570476[24] x10) 
                        (bvadd (bvmul bv231626[24] x11) 
                        (bvadd (bvmul bv6853113[24] x13) 
                        (bvadd (bvmul bv16537105[24] x14) 
                        (bvadd (bvmul bv6577855[24] x17) (bvmul bv6165412[24] x19)))))))))
	              bv5570698[24]))
         (and (not (= (bvadd (bvmul bv6439281[24] x2) 
                        (bvadd (bvmul bv12215710[24] x4) 
                        (bvadd (bvmul bv13729162[24] x7) 
                        (bvadd (bvmul bv11390310[24] x8) 
                        (bvadd (bvmul bv12115713[24] x9) 
                        (bvadd (bvmul bv12347340[24] x11) 
                        (bvadd (bvmul bv6651189[24] x15) 
                        (bvadd (bvmul bv391543[24] x16) 
                        (bvadd (bvmul bv4429699[24] x18) (bvmul bv5132651[24] x19))))))))))
	              bv10000398[24]))
         (and (not (= (bvadd (bvmul bv9460825[24] x0) 
                        (bvadd (bvmul bv15271885[24] x3) 
                        (bvadd (bvmul bv6967790[24] x4) 
                        (bvadd (bvmul bv3919737[24] x6) 
                        (bvadd (bvmul bv3552196[24] x7) 
                        (bvadd (bvmul bv6735768[24] x9) 
                        (bvadd (bvmul bv5423126[24] x10) 
                        (bvadd (bvmul bv6784665[24] x11) 
                        (bvadd (bvmul bv13435855[24] x13) 
                        (bvadd (bvmul bv15874913[24] x15) 
                        (bvadd (bvmul bv13621179[24] x16) 
                        (bvadd (bvmul bv4335637[24] x17) (bvmul bv13796463[24] x19)))))))))))))
	              bv11074448[24]))
         (and (not (= (bvadd (bvmul bv12884562[24] x0) 
                        (bvadd (bvmul bv12161202[24] x1) 
                        (bvadd (bvmul bv4323088[24] x3) 
                        (bvadd (bvmul bv1299110[24] x7) 
                        (bvadd (bvmul bv10244238[24] x8) 
                        (bvadd (bvmul bv251689[24] x10) 
                        (bvadd (bvmul bv1235218[24] x11) 
                        (bvadd (bvmul bv14804350[24] x12) 
                        (bvadd (bvmul bv12785243[24] x13) 
                        (bvadd (bvmul bv7270663[24] x14) 
                        (bvadd (bvmul bv15491359[24] x17) 
                        (bvadd (bvmul bv8412259[24] x18) (bvmul bv11469571[24] x19)))))))))))))
	              bv1204162[24]))
         (and (not (= (bvadd (bvmul bv11690197[24] x1) 
                        (bvadd (bvmul bv4762369[24] x2) 
                        (bvadd (bvmul bv4435415[24] x5) 
                        (bvadd (bvmul bv8580264[24] x6) 
                        (bvadd (bvmul bv9208058[24] x7) 
                        (bvadd (bvmul bv8949040[24] x8) 
                        (bvadd (bvmul bv5742283[24] x9) 
                        (bvadd (bvmul bv8679509[24] x14) (bvmul bv7393653[24] x16)))))))))
	              bv15826640[24]))
         (and (not (= (bvadd (bvmul bv13594133[24] x1) 
                        (bvadd (bvmul bv3000021[24] x2) 
                        (bvadd (bvmul bv5161744[24] x4) 
                        (bvadd (bvmul bv4025145[24] x5) 
                        (bvadd (bvmul bv15182798[24] x7) 
                        (bvadd (bvmul bv550317[24] x8) 
                        (bvadd (bvmul bv12124188[24] x12) 
                        (bvadd (bvmul bv7531944[24] x16) 
                        (bvadd (bvmul bv7338860[24] x17) 
                        (bvadd (bvmul bv15747912[24] x18) (bvmul bv10938438[24] x19)))))))))))
	              bv511139[24]))
         (and (not (= (bvadd (bvmul bv4248265[24] x2) 
                        (bvadd (bvmul bv13331508[24] x3) 
                        (bvadd (bvmul bv9249958[24] x4) 
                        (bvadd (bvmul bv968322[24] x6) 
                        (bvadd (bvmul bv12155466[24] x7) 
                        (bvadd (bvmul bv15854151[24] x13) (bvmul bv13185062[24] x16)))))))
	              bv3072166[24]))
         (and (not (= (bvadd (bvmul bv2458083[24] x0) 
                        (bvadd (bvmul bv547869[24] x3) 
                        (bvadd (bvmul bv13802185[24] x6) 
                        (bvadd (bvmul bv14458817[24] x7) 
                        (bvadd (bvmul bv12989151[24] x8) 
                        (bvadd (bvmul bv6970537[24] x9) 
                        (bvadd (bvmul bv3006273[24] x10) 
                        (bvadd (bvmul bv5541815[24] x11) 
                        (bvadd (bvmul bv4618752[24] x13) 
                        (bvadd (bvmul bv14603919[24] x14) 
                        (bvadd (bvmul bv1928173[24] x16) 
                        (bvadd (bvmul bv480118[24] x17) (bvmul bv2938202[24] x19)))))))))))))
	              bv8583645[24]))
         (and (not (= (bvadd (bvmul bv13151643[24] x0) 
                        (bvadd (bvmul bv13433652[24] x1) 
                        (bvadd (bvmul bv6233677[24] x2) 
                        (bvadd (bvmul bv11166127[24] x3) 
                        (bvadd (bvmul bv5108639[24] x8) 
                        (bvadd (bvmul bv10487685[24] x11) 
                        (bvadd (bvmul bv15269207[24] x12) 
                        (bvadd (bvmul bv2132888[24] x14) 
                        (bvadd (bvmul bv14738979[24] x15) (bvmul bv15703687[24] x16))))))))))
	              bv11545749[24]))
         (and (not (= (bvadd (bvmul bv15016317[24] x0) 
                        (bvadd (bvmul bv14161616[24] x2) 
                        (bvadd (bvmul bv3634462[24] x3) 
                        (bvadd (bvmul bv14049006[24] x4) 
                        (bvadd (bvmul bv15928593[24] x5) 
                        (bvadd (bvmul bv4375173[24] x6) 
                        (bvadd (bvmul bv14910473[24] x9) 
                        (bvadd (bvmul bv8429293[24] x10) 
                        (bvadd (bvmul bv1415443[24] x11) 
                        (bvadd (bvmul bv16639012[24] x13) 
                        (bvadd (bvmul bv15565484[24] x15) 
                        (bvadd (bvmul bv652944[24] x17) (bvmul bv15669261[24] x19)))))))))))))
	              bv4055336[24]))
         (and (not (= (bvadd (bvmul bv14189062[24] x1) 
                        (bvadd (bvmul bv4826977[24] x2) 
                        (bvadd (bvmul bv608714[24] x3) 
                        (bvadd (bvmul bv4983888[24] x5) 
                        (bvadd (bvmul bv15206295[24] x7) 
                        (bvadd (bvmul bv1755022[24] x13) 
                        (bvadd (bvmul bv12647950[24] x15) (bvmul bv6627231[24] x18))))))))
	              bv5909057[24]))
         (and (not (= (bvadd (bvmul bv1795726[24] x2) 
                        (bvadd (bvmul bv3061638[24] x6) 
                        (bvadd (bvmul bv7976108[24] x7) 
                        (bvadd (bvmul bv7864099[24] x12) 
                        (bvadd (bvmul bv11430735[24] x13) 
                        (bvadd (bvmul bv7877023[24] x14) 
                        (bvadd (bvmul bv5597123[24] x15) (bvmul bv11571410[24] x17))))))))
	              bv1421427[24]))
         (and (not (= (bvadd (bvmul bv9207138[24] x0) 
                        (bvadd (bvmul bv3182290[24] x2) 
                        (bvadd (bvmul bv3478667[24] x3) 
                        (bvadd (bvmul bv2140223[24] x5) 
                        (bvadd (bvmul bv9182980[24] x6) 
                        (bvadd (bvmul bv16742379[24] x7) 
                        (bvadd (bvmul bv12071655[24] x8) 
                        (bvadd (bvmul bv1569646[24] x13) 
                        (bvadd (bvmul bv10741116[24] x14) (bvmul bv3020394[24] x16))))))))))
	              bv3382392[24]))
         (and (not (= (bvadd (bvmul bv15525614[24] x0) 
                        (bvadd (bvmul bv15354870[24] x1) 
                        (bvadd (bvmul bv10047215[24] x8) 
                        (bvadd (bvmul bv16227923[24] x9) 
                        (bvadd (bvmul bv5890479[24] x11) 
                        (bvadd (bvmul bv8886016[24] x13) 
                        (bvadd (bvmul bv2981361[24] x15) (bvmul bv4725061[24] x16))))))))
	              bv8064647[24]))
         (and (not (= (bvadd (bvmul bv7141552[24] x1) 
                        (bvadd (bvmul bv5896615[24] x5) 
                        (bvadd (bvmul bv6760850[24] x7) 
                        (bvadd (bvmul bv16005705[24] x8) 
                        (bvadd (bvmul bv15456413[24] x10) 
                        (bvadd (bvmul bv15103708[24] x14) 
                        (bvadd (bvmul bv158268[24] x15) 
                        (bvadd (bvmul bv16437055[24] x16) (bvmul bv609846[24] x17)))))))))
	              bv7295872[24]))
         (and (not (= (bvadd (bvmul bv9326421[24] x0) 
                        (bvadd (bvmul bv4201377[24] x3) 
                        (bvadd (bvmul bv10097993[24] x5) 
                        (bvadd (bvmul bv8269974[24] x6) 
                        (bvadd (bvmul bv7498464[24] x8) 
                        (bvadd (bvmul bv16621618[24] x14) 
                        (bvadd (bvmul bv7085660[24] x18) (bvmul bv15367567[24] x19))))))))
	              bv8667924[24]))
         (and (not (= (bvadd (bvmul bv6473301[24] x3) 
                        (bvadd (bvmul bv10674679[24] x5) 
                        (bvadd (bvmul bv4077086[24] x10) 
                        (bvadd (bvmul bv16565939[24] x11) 
                        (bvadd (bvmul bv5966387[24] x13) 
                        (bvadd (bvmul bv1132344[24] x14) 
                        (bvadd (bvmul bv8692499[24] x15) 
                        (bvadd (bvmul bv1208571[24] x18) (bvmul bv7792409[24] x19)))))))))
	              bv16576139[24]))
         (and (not (= (bvadd (bvmul bv9425192[24] x5) 
                        (bvadd (bvmul bv6055915[24] x6) 
                        (bvadd (bvmul bv10483788[24] x7) 
                        (bvadd (bvmul bv3935404[24] x8) 
                        (bvadd (bvmul bv16644356[24] x10) 
                        (bvadd (bvmul bv8529159[24] x13) 
                        (bvadd (bvmul bv15139817[24] x14) 
                        (bvadd (bvmul bv2304189[24] x15) 
                        (bvadd (bvmul bv10999361[24] x17) (bvmul bv2014555[24] x19))))))))))
	              bv2598163[24]))
         (and (not (= (bvadd (bvmul bv8283312[24] x1) 
                        (bvadd (bvmul bv10594059[24] x2) 
                        (bvadd (bvmul bv3511880[24] x6) 
                        (bvadd (bvmul bv2994621[24] x7) 
                        (bvadd (bvmul bv345864[24] x9) 
                        (bvadd (bvmul bv12275579[24] x14) 
                        (bvadd (bvmul bv4497954[24] x17) (bvmul bv7297193[24] x19))))))))
	              bv15313722[24]))
         (and (not (= (bvadd (bvmul bv9895357[24] x0) 
                        (bvadd (bvmul bv14588773[24] x4) 
                        (bvadd (bvmul bv1314691[24] x6) 
                        (bvadd (bvmul bv2852622[24] x7) 
                        (bvadd (bvmul bv1003873[24] x8) 
                        (bvadd (bvmul bv15285365[24] x9) 
                        (bvadd (bvmul bv15511991[24] x15) 
                        (bvadd (bvmul bv13314545[24] x17) (bvmul bv16709440[24] x18)))))))))
	              bv3307022[24]))
         (and (not (= (bvadd (bvmul bv16155717[24] x0) 
                        (bvadd (bvmul bv65515[24] x1) 
                        (bvadd (bvmul bv12598896[24] x3) 
                        (bvadd (bvmul bv2499466[24] x6) 
                        (bvadd (bvmul bv1023862[24] x8) 
                        (bvadd (bvmul bv3255487[24] x11) 
                        (bvadd (bvmul bv586689[24] x12) 
                        (bvadd (bvmul bv12717050[24] x14) 
                        (bvadd (bvmul bv1764006[24] x17) (bvmul bv7103252[24] x19))))))))))
	              bv5362594[24]))
         (and (not (= (bvadd (bvmul bv6481754[24] x0) 
                        (bvadd (bvmul bv9854970[24] x2) 
                        (bvadd (bvmul bv5122497[24] x3) 
                        (bvadd (bvmul bv2507000[24] x4) 
                        (bvadd (bvmul bv3408875[24] x6) 
                        (bvadd (bvmul bv14563074[24] x7) 
                        (bvadd (bvmul bv8570111[24] x10) 
                        (bvadd (bvmul bv14681777[24] x11) 
                        (bvadd (bvmul bv13523645[24] x12) 
                        (bvadd (bvmul bv3511472[24] x13) 
                        (bvadd (bvmul bv12378731[24] x18) (bvmul bv7903391[24] x19))))))))))))
	              bv2083271[24]))
         (and (bvule      (bvadd (bvmul bv426991[24] x0) 
                        (bvadd (bvmul bv11612478[24] x1) 
                        (bvadd (bvmul bv5834411[24] x4) 
                        (bvadd (bvmul bv14843718[24] x10) 
                        (bvadd (bvmul bv9739071[24] x11) 
                        (bvadd (bvmul bv12920671[24] x12) 
                        (bvadd (bvmul bv9277676[24] x15) 
                        (bvadd (bvmul bv4930408[24] x16) (bvmul bv9939508[24] x17)))))))))
	              bv1065684[24])
         (and (bvule      (bvadd (bvmul bv14391914[24] x3) 
                        (bvadd (bvmul bv12876577[24] x6) 
                        (bvadd (bvmul bv233740[24] x8) 
                        (bvadd (bvmul bv5754899[24] x11) 
                        (bvadd (bvmul bv3944895[24] x12) 
                        (bvadd (bvmul bv10430397[24] x14) (bvmul bv2930858[24] x16)))))))
	              bv12752355[24])
         (and (bvule      (bvadd (bvmul bv3508445[24] x2) 
                        (bvadd (bvmul bv15310717[24] x3) 
                        (bvadd (bvmul bv15674035[24] x10) 
                        (bvadd (bvmul bv8867514[24] x14) 
                        (bvadd (bvmul bv12856419[24] x17) (bvmul bv2134908[24] x18))))))
	              bv13420748[24])
              (bvule      (bvadd (bvmul bv13699815[24] x1) 
                        (bvadd (bvmul bv4760217[24] x3) 
                        (bvadd (bvmul bv13050352[24] x4) 
                        (bvadd (bvmul bv13274440[24] x5) 
                        (bvadd (bvmul bv6831807[24] x6) 
                        (bvadd (bvmul bv3747926[24] x9) 
                        (bvadd (bvmul bv8917344[24] x10) 
                        (bvadd (bvmul bv1771296[24] x13) 
                        (bvadd (bvmul bv9891252[24] x14) 
                        (bvadd (bvmul bv6174992[24] x18) (bvmul bv8964210[24] x19)))))))))))
	              bv11122748[24])
	 )))))))))))))))))))))))))))))))))))))))

)
